Instance: Data/Instances_txt/inst_200_10_4.txt
Time since start: 458.2853260040283

Gurobi 10.0.1 (mac64[x86]) logging started Do 13 Jul 22:40:20 2023

Set parameter LogFile to value "Output/MILP_inst_200_10_4.txt_2023-07-13_22-32-39.txt"
Set parameter TimeLimit to value 3000

Gurobi 10.0.1 (mac64[x86]) logging started Do 13 Jul 22:40:28 2023

Set parameter LogFile to value "Output/MILP_inst_200_10_4.txt_2023-07-13_22-32-39.txt"
Gurobi Optimizer version 10.0.1 build v10.0.1rc0 (mac64[x86])

CPU model: Intel(R) Core(TM) i5-1038NG7 CPU @ 2.00GHz
Thread count: 4 physical cores, 8 logical processors, using up to 8 threads

Academic license - for non-commercial use only - registered to joel.steiner@unifr.ch
Optimize a model with 401 rows, 242510 columns and 1495906 nonzeros
Model fingerprint: 0x1b6b4563
Variable types: 0 continuous, 242510 integer (0 binary)
Coefficient statistics:
  Matrix range     [1e+00, 1e+00]
  Objective range  [6e+00, 2e+04]
  Bounds range     [1e+00, 1e+00]
  RHS range        [1e+00, 1e+00]
Presolve time: 2.44s
Presolved: 401 rows, 242510 columns, 1495906 nonzeros
Variable types: 0 continuous, 242510 integer (242510 binary)

Starting sifting (using dual simplex for sub-problems)...

    Iter     Pivots    Primal Obj      Dual Obj        Time
       0          0     infinity      0.0000000e+00      4s
       1       1888   2.0200000e+08   5.9943888e+02      4s
       2       5921   2.0200000e+08   1.1819218e+03      4s
       3       9524   2.0200000e+08   1.7509432e+03      5s
       4      12972   2.0200000e+08   2.3090419e+03      5s
       5      16319   2.0200000e+08   2.8581235e+03      5s
       6      18778   2.0200000e+08   3.3996412e+03      5s
       7      22107   2.0200000e+08   3.8639053e+03      5s

Sifting complete


Root simplex log...

Iteration    Objective       Primal Inf.    Dual Inf.      Time
   28494    5.5959391e+05   1.190924e+01   1.158335e+11      6s
   79457    2.0695907e+05   0.000000e+00   0.000000e+00      9s

Root relaxation: objective 2.069591e+05, 79457 iterations, 4.87 seconds (5.28 work units)

    Nodes    |    Current Node    |     Objective Bounds      |     Work
 Expl Unexpl |  Obj  Depth IntInf | Incumbent    BestBd   Gap | It/Node Time

     0     0 206959.071    0  321          - 206959.071      -     -   10s
H    0     0                    729330.00000 206959.071  71.6%     -   11s
H    0     0                    509115.00000 206959.071  59.3%     -   19s
     0     0 207791.097    0  354 509115.000 207791.097  59.2%     -   46s
H    0     0                    424964.00000 207791.097  51.1%     -   77s
     0     0 208034.410    0  354 424964.000 208034.410  51.0%     -   89s
     0     0 208053.078    0  351 424964.000 208053.078  51.0%     -   94s
     0     0 208053.192    0  350 424964.000 208053.192  51.0%     -   94s
     0     0 208236.287    0  371 424964.000 208236.287  51.0%     -  124s
H    0     0                    302492.00000 208236.287  31.2%     -  130s
     0     0 208286.933    0  373 302492.000 208286.933  31.1%     -  138s
     0     0 208288.685    0  392 302492.000 208288.685  31.1%     -  141s
     0     0 208289.625    0  378 302492.000 208289.625  31.1%     -  142s
     0     0 208418.348    0  400 302492.000 208418.348  31.1%     -  159s
     0     0 208436.480    0  393 302492.000 208436.480  31.1%     -  168s
     0     0 208436.500    0  395 302492.000 208436.500  31.1%     -  169s
     0     0 208485.948    0  414 302492.000 208485.948  31.1%     -  191s
H    0     0                    263771.00000 208485.948  21.0%     -  209s
     0     0 208492.448    0  414 263771.000 208492.448  21.0%     -  211s
     0     0 208492.697    0  430 263771.000 208492.697  21.0%     -  213s
     0     0 208526.318    0  421 263771.000 208526.318  20.9%     -  228s
     0     0 208527.255    0  433 263771.000 208527.255  20.9%     -  248s
     0     0 208527.255    0  433 263771.000 208527.255  20.9%     -  248s
     0     0 208537.196    0  421 263771.000 208537.196  20.9%     -  259s
H    0     0                    242128.00000 208537.196  13.9%     -  265s
     0     0 208537.919    0  424 242128.000 208537.919  13.9%     -  267s
     0     0 208543.220    0  446 242128.000 208543.220  13.9%     -  276s
     0     0 208543.220    0  446 242128.000 208543.220  13.9%     -  280s
     0     2 208543.220    0  444 242128.000 208543.220  13.9%     -  298s
     1     4 208553.254    1  393 242128.000 208543.220  13.9%  2119  315s
     3     8 208578.402    2  381 242128.000 208550.408  13.9%  1471  358s
     7    12 208630.621    3  381 242128.000 208560.435  13.9%  1916  401s
    11    13 208610.054    3  420 242128.000 208560.435  13.9%  1877 4923s

Cutting planes:
  Clique: 145
  MIR: 6
  StrongCG: 1
  Zero half: 20
  RLT: 36

Explored 12 nodes (119257 simplex iterations) in 4927.49 seconds (380.99 work units)
Thread count was 8 (of 8 available processors)

Solution count 6: 242128 263771 302492 ... 729330

Time limit reached
Best objective 2.421280000000e+05, best bound 2.085610000000e+05, gap 13.8633%

User-callback calls 51778, time in user-callback 0.23 sec
